(set-info :source |printed by MathSAT|)
(declare-fun |A::a1__param__| () (_ BitVec 32))
(declare-fun |main::local_14| () (_ BitVec 32))

A N36:
(assert (let ((.def_94 (= |A::a1__param__| (_ bv0 32)))).def_94))
(assert (let ((.def_97 (= |main::local_14| (_ bv0 32)))).def_97))

main N52:
(assert (let ((.def_97 (= |main::local_14| (_ bv0 32)))).def_97))

main N53:
(assert (let ((.def_97 (= |main::local_14| (_ bv0 32)))).def_97))

main N369:
(assert false)

